
&GLOBAL 
  PRINT_LEVEL LOW
  PROJECT_NAME field_pypz
  RUN_TYPE MD
&END GLOBAL
&MOTION 
  &MD
    ENSEMBLE REFTRAJ
    &REFTRAJ
      EVAL_ENERGY_FORCES T
      EVAL_FORCES T
      FIRST_SNAPSHOT 30
      LAST_SNAPSHOT 30
      TRAJ_FILE_NAME configurations.xyz
    &END REFTRAJ
  &END MD  
  &PRINT
    &TRAJECTORY OFF
    &END TRAJECTORY
    &FORCES ON
    &END FORCES
  &END PRINT
&END MOTION

@SET FIELD_INTENSITY 5e-4 
@SET FIELD_POLARISATION 0.0 1.0 1.0
@include 'force_eval.inc'
                
